0,8,46,45,17,86,0
0,50,77,29,24,26,0
0,30,51,81,78,34,35,71,65,0
0,44,38,14,42,87,57,15,43,100,0
0,31,88,7,82,48,47,36,49,64,0
0,62,19,11,63,90,32,66,10,70,0
0,2,41,22,75,23,67,25,55,4,54,0
0,95,6,94,89,18,60,83,84,5,96,13,0
0,52,27,28,53,40,21,73,72,74,56,39,0
0,69,76,12,80,68,3,79,33,9,20,1,0
0,99,59,92,98,91,16,61,85,93,37,97,58,0
